# Objective value = 1.9349206064393270e+03
x[0] 0
x[1] 1
x[2] 1
x[3] 1
x[4] 0
x[5] 1
x[6] 1
x[7] 0
x[8] 0
x[9] 1
x[10] 1
x[11] 1
x[12] 0
x[13] 1
x[14] 1
x[15] 1
x[16] 1
x[17] 1
x[18] 0
x[19] 1
x[20] 1
x[21] 0
x[22] 0
x[23] 1
x[24] 0
x[25] 1
x[26] 0
x[27] 1
x[28] 0
x[29] 1
x[30] 1
x[31] 0
x[32] 1
x[33] 1
x[34] 0
x[35] 0
x[36] 0
x[37] 1
x[38] 1
x[39] 1
x[40] 1
x[41] 0
x[42] 0
x[43] 1
x[44] 1
x[45] 1
x[46] 1
x[47] 1
x[48] 1
x[49] 1
x[50] 1
x[51] 1
x[52] 1
x[53] 0
x[54] 0
x[55] 1
x[56] 0
x[57] 0
x[58] 1
x[59] 0
x[60] 1
x[61] 0
x[62] 1
x[63] 0
x[64] 0
x[65] 0
x[66] 1
x[67] 1
x[68] 0
x[69] 1
x[70] 0
x[71] 1
x[72] 1
x[73] 1
x[74] 0
x[75] 0
x[76] 1
x[77] 1
x[78] 0
x[79] 1
x[80] 1
x[81] 0
x[82] 1
x[83] 1
x[84] 0
x[85] 0
x[86] 0
x[87] 0
x[88] 1
x[89] 1
x[90] 0
x[91] 0
x[92] 0
x[93] 0
x[94] 1
x[95] 1
x[96] 0
x[97] 1
x[98] 0
x[99] 0
x[100] 1
x[101] 1
x[102] 0
x[103] 1
x[104] 0
x[105] 0
x[106] 0
x[107] 0
x[108] 1
x[109] 0
x[110] 1
x[111] 1
x[112] 0
x[113] 1
x[114] 1
x[115] 1
x[116] 1
x[117] 0
x[118] 0
x[119] 1
x[120] 1
x[121] 1
x[122] 0
x[123] 1
x[124] 1
x[125] 1
x[126] 1
x[127] 1
x[128] 1
x[129] 1
x[130] 1
x[131] 1
x[132] 1
x[133] 1
x[134] 0
x[135] 0
x[136] 0
x[137] 1
x[138] 1
x[139] 0
x[140] 1
x[141] 0
x[142] 0
x[143] 1
x[144] 1
x[145] 1
x[146] 0
x[147] 0
x[148] 0
x[149] 0
x[150] 0
x[151] 0
x[152] 1
x[153] 0
x[154] 1
x[155] 0
x[156] 1
x[157] 1
x[158] 0
x[159] 1
x[160] 0
x[161] 1
x[162] 1
x[163] 0
x[164] 0
x[165] 1
x[166] 1
x[167] 1
x[168] 1
x[169] 1
x[170] 1
x[171] 1
x[172] 1
x[173] 1
x[174] 1
x[175] 1
x[176] 1
x[177] 0
x[178] 1
x[179] 0
x[180] 0
x[181] 1
x[182] 1
x[183] 0
x[184] 0
x[185] 1
x[186] 0
x[187] 0
x[188] 1
x[189] 0
x[190] 0
x[191] 1
x[192] 0
x[193] 1
x[194] 1
x[195] 1
x[196] 1
x[197] 1
x[198] 1
x[199] 1
x[200] 1
x[201] 1
x[202] 0
x[203] 1
x[204] 0
x[205] 1
x[206] 1
x[207] 1
x[208] 1
x[209] 0
x[210] 0
x[211] 0
x[212] 0
x[213] 1
x[214] 1
x[215] 1
x[216] 1
x[217] 0
x[218] 1
x[219] 0
x[220] 0
x[221] 0
x[222] 1
x[223] 0
x[224] 1
x[225] 0
x[226] 1
x[227] 0
x[228] 1
x[229] 1
x[230] 0
x[231] 0
x[232] 0
x[233] 1
x[234] 1
x[235] 0
x[236] 0
x[237] 0
x[238] 0
x[239] 0
x[240] 0
x[241] 0
x[242] 1
x[243] 1
x[244] 1
x[245] 1
x[246] 1
x[247] 1
x[248] 1
x[249] 1
x[250] 0
x[251] 0
x[252] 1
x[253] 1
x[254] 1
x[255] 1
x[256] 1
x[257] 1
x[258] 0
x[259] 1
x[260] 0
x[261] 1
x[262] 0
x[263] 1
x[264] 1
x[265] 1
x[266] 0
x[267] 1
x[268] 0
x[269] 0
x[270] 0
x[271] 1
x[272] 0
x[273] 1
x[274] 1
x[275] 0
x[276] 1
x[277] 0
x[278] 1
x[279] 1
x[280] 0
x[281] 1
x[282] 1
x[283] 0
x[284] 0
x[285] 1
x[286] 1
x[287] 0
x[288] 0
x[289] 0
x[290] 1
x[291] 0
x[292] 1
x[293] 1
x[294] 1
x[295] 0
x[296] 0
x[297] 1
x[298] 0
x[299] 0
x[300] 1
x[301] 1
x[302] 0
x[303] 0
x[304] 1
x[305] 1
x[306] 0
x[307] 1
x[308] 1
x[309] 1
x[310] 0
x[311] 1
x[312] 1
x[313] 1
x[314] 1
x[315] 1
x[316] 1
x[317] 0
x[318] 0
x[319] 0
x[320] 0
x[321] 0
x[322] 0
x[323] 1
x[324] 0
x[325] 1
x[326] 1
x[327] 1
x[328] 0
x[329] 1
x[330] 0
x[331] 1
x[332] 1
x[333] 0
x[334] 1
x[335] 0
x[336] 0
x[337] 1
x[338] 1
x[339] 1
x[340] 1
x[341] 1
x[342] 0
x[343] 1
x[344] 1
x[345] 0
x[346] 0
x[347] 1
x[348] 0
x[349] 1
x[350] 0
x[351] 1
x[352] 0
x[353] 0
x[354] 1
x[355] 1
x[356] 0
x[357] 0
x[358] 0
x[359] 0
x[360] 1
x[361] 1
x[362] 0
x[363] 1
x[364] 1
x[365] 0
x[366] 1
x[367] 0
x[368] 1
x[369] 0
x[370] 0
x[371] 1
x[372] 1
x[373] 0
x[374] 0
x[375] 1
x[376] 1
x[377] 1
x[378] 1
x[379] 0
x[380] 1
x[381] 0
x[382] 0
x[383] 0
x[384] 1
x[385] 1
x[386] 0
x[387] 1
x[388] 1
x[389] 0
x[390] 1
x[391] 0
x[392] 0
x[393] 0
x[394] 0
x[395] 1
x[396] 0
x[397] 0
x[398] 0
x[399] 0
x[400] 1
x[401] 1
x[402] 0
x[403] 1
x[404] 0
x[405] 1
x[406] 1
x[407] 1
x[408] 1
x[409] 1
x[410] 1
x[411] 1
x[412] 0
x[413] 1
x[414] 0
x[415] 1
x[416] 1
x[417] 0
x[418] 1
x[419] 1
x[420] 1
x[421] 0
x[422] 0
x[423] 1
x[424] 1
x[425] 1
x[426] 1
x[427] 1
x[428] 1
x[429] 0
x[430] 0
x[431] 1
x[432] 1
x[433] 1
x[434] 1
x[435] 1
x[436] 1
x[437] 1
x[438] 1
x[439] 0
x[440] 1
x[441] 1
x[442] 0
x[443] 0
x[444] 0
x[445] 1
x[446] 1
x[447] 0
x[448] 1
x[449] 1
x[450] 0
x[451] 1
x[452] 0
x[453] 0
x[454] 1
x[455] 0
x[456] 0
x[457] 1
x[458] 1
x[459] 1
x[460] 0
x[461] 0
x[462] 0
x[463] 0
x[464] 0
x[465] 0
x[466] 0
x[467] 0
x[468] 0
x[469] 1
x[470] 1
x[471] 1
x[472] 0
x[473] 1
x[474] 0
x[475] 0
x[476] 1
x[477] 1
x[478] 1
x[479] 1
x[480] 1
x[481] 1
x[482] 0
x[483] 1
x[484] 1
x[485] 1
x[486] 1
x[487] 1
x[488] 0
x[489] 1
x[490] 1
x[491] 1
x[492] 0
x[493] 1
x[494] 1
x[495] 1
x[496] 0
x[497] 1
x[498] 1
x[499] 0
x[500] 1
x[501] 1
x[502] 1
x[503] 1
x[504] 1
x[505] 1
x[506] 1
x[507] 0
x[508] 1
x[509] 0
x[510] 0
x[511] 1
x[512] 0
x[513] 0
x[514] 0
x[515] 1
x[516] 0
x[517] 1
x[518] 1
x[519] 0
x[520] 1
x[521] 1
x[522] 0
x[523] 1
x[524] 0
x[525] 0
x[526] 0
x[527] 0
x[528] 1
x[529] 1
x[530] 0
x[531] 1
x[532] 0
x[533] 0
x[534] 0
x[535] 1
x[536] 1
x[537] 1
x[538] 0
x[539] 0
x[540] 1
x[541] 0
x[542] 1
x[543] 1
x[544] 1
x[545] 0
x[546] 1
x[547] 1
x[548] 1
x[549] 1
x[550] 1
x[551] 1
x[552] 0
x[553] 0
x[554] 0
x[555] 0
x[556] 1
x[557] 0
x[558] 1
x[559] 0
x[560] 0
x[561] 1
x[562] 1
x[563] 1
x[564] 1
x[565] 1
x[566] 1
x[567] 1
x[568] 0
x[569] 1
x[570] 1
x[571] 1
x[572] 0
x[573] 0
x[574] 0
x[575] 1
x[576] 1
x[577] 1
x[578] 0
x[579] 1
x[580] 1
x[581] 1
x[582] 0
x[583] 0
x[584] 0
x[585] 1
x[586] 1
x[587] 0
x[588] 0
x[589] 1
x[590] 1
x[591] 0
x[592] 0
x[593] 1
x[594] 1
x[595] 1
x[596] 1
x[597] 0
x[598] 0
x[599] 0
x[600] 0
x[601] 0
x[602] 0
x[603] 0
x[604] 1
x[605] 1
x[606] 0
x[607] 1
x[608] 1
x[609] 1
x[610] 1
x[611] 1
x[612] 0
x[613] 0
x[614] 0
x[615] 1
x[616] 1
x[617] 1
x[618] 0
x[619] 0
x[620] 0
x[621] 1
x[622] 0
x[623] 0
x[624] 1
x[625] 1
x[626] 1
x[627] 0
x[628] 0
x[629] 1
x[630] 0
x[631] 1
x[632] 1
x[633] 1
x[634] 0
x[635] 1
x[636] 1
x[637] 1
x[638] 1
x[639] 1
x[640] 0
x[641] 1
x[642] 1
x[643] 1
x[644] 0
x[645] 0
x[646] 0
x[647] 0
x[648] 0
x[649] 1
x[650] 1
x[651] 0
x[652] 1
x[653] 0
x[654] 1
x[655] 0
x[656] 1
x[657] 1
x[658] 0
x[659] 1
x[660] 1
x[661] 1
x[662] 0
x[663] 1
x[664] 1
x[665] 0
x[666] 1
x[667] 1
x[668] 0
x[669] 1
x[670] 0
x[671] 1
x[672] 1
x[673] 0
x[674] 1
x[675] 0
x[676] 0
x[677] 1
x[678] 1
x[679] 0
x[680] 0
x[681] 0
x[682] 0
x[683] 0
x[684] 0
x[685] 0
x[686] 0
x[687] 0
x[688] 0
x[689] 1
x[690] 1
x[691] 1
x[692] 1
x[693] 1
x[694] 0
x[695] 0
x[696] 0
x[697] 1
x[698] 0
x[699] 1
x[700] 1
x[701] 0
x[702] 0
x[703] 0
x[704] 1
x[705] 0
x[706] 1
x[707] 1
x[708] 0
x[709] 1
x[710] 0
x[711] 0
x[712] 0
x[713] 1
x[714] 1
x[715] 1
x[716] 0
x[717] 0
x[718] 1
x[719] 1
x[720] 1
x[721] 1
x[722] 1
x[723] 1
x[724] 1
x[725] 0
x[726] 1
x[727] 1
x[728] 0
x[729] 0
x[730] 1
x[731] 1
x[732] 1
x[733] 0
x[734] 1
x[735] 0
x[736] 0
x[737] 0
x[738] 1
x[739] 1
x[740] 0
x[741] 1
x[742] 1
x[743] 1
x[744] 0
x[745] 1
x[746] 0
x[747] 1
x[748] 0
x[749] 0
x[750] 1
x[751] 1
x[752] 1
x[753] 1
x[754] 0
x[755] 0
x[756] 0
x[757] 1
x[758] 1
x[759] 0
x[760] 1
x[761] 1
x[762] 0
x[763] 0
x[764] 1
x[765] 0
x[766] 1
x[767] 1
x[768] 1
x[769] 0
x[770] 1
x[771] 1
x[772] 1
x[773] 0
x[774] 0
x[775] 0
x[776] 1
x[777] 0
x[778] 0
x[779] 1
x[780] 0
x[781] 1
x[782] 1
x[783] 0
x[784] 1
x[785] 0
x[786] 0
x[787] 0
x[788] 1
x[789] 1
x[790] 0
x[791] 1
x[792] 1
x[793] 0
x[794] 0
x[795] 0
x[796] 1
x[797] 1
x[798] 0
x[799] 0
x[800] 1
x[801] 0
x[802] 1
x[803] 0
x[804] 1
x[805] 1
x[806] 1
x[807] 1
x[808] 0
x[809] 1
x[810] 0
x[811] 1
x[812] 1
x[813] 0
x[814] 0
x[815] 1
x[816] 1
x[817] 0
x[818] 1
x[819] 0
x[820] 0
x[821] 0
x[822] 1
x[823] 1
x[824] 0
x[825] 1
x[826] 1
x[827] 1
x[828] 1
x[829] 1
x[830] 0
x[831] 0
x[832] 0
x[833] 1
x[834] 1
x[835] 0
x[836] 1
x[837] 0
x[838] 1
x[839] 0
x[840] 1
x[841] 1
x[842] 0
x[843] 1
x[844] 0
x[845] 1
x[846] 1
x[847] 0
x[848] 1
x[849] 1
x[850] 0
x[851] 0
x[852] 0
x[853] 1
x[854] 1
x[855] 0
x[856] 1
x[857] 1
x[858] 1
x[859] 1
x[860] 1
x[861] 1
x[862] 1
x[863] 1
x[864] 0
x[865] 0
x[866] 0
x[867] 0
x[868] 1
x[869] 0
x[870] 0
x[871] 1
x[872] 1
x[873] 1
x[874] 1
x[875] 1
x[876] 0
x[877] 1
x[878] 0
x[879] 1
x[880] 1
x[881] 0
x[882] 0
x[883] 1
x[884] 1
x[885] 1
x[886] 1
x[887] 0
x[888] 0
x[889] 1
x[890] 0
x[891] 1
x[892] 0
x[893] 1
x[894] 1
x[895] 1
x[896] 1
x[897] 1
x[898] 1
x[899] 1
x[900] 0
x[901] 0
x[902] 0
x[903] 1
x[904] 1
x[905] 0
x[906] 1
x[907] 1
x[908] 1
x[909] 0
x[910] 0
x[911] 0
x[912] 0
x[913] 1
x[914] 1
x[915] 0
x[916] 1
x[917] 0
x[918] 0
x[919] 0
x[920] 0
x[921] 1
x[922] 1
x[923] 0
x[924] 0
x[925] 1
x[926] 0
x[927] 0
x[928] 0
x[929] 0
x[930] 0
x[931] 0
x[932] 1
x[933] 0
x[934] 0
x[935] 1
x[936] 0
x[937] 0
x[938] 1
x[939] 1
x[940] 1
x[941] 1
x[942] 1
x[943] 1
x[944] 1
x[945] 0
x[946] 1
x[947] 0
x[948] 0
x[949] 1
x[950] 0
x[951] 0
x[952] 1
x[953] 1
x[954] 1
x[955] 0
x[956] 1
x[957] 0
x[958] 1
x[959] 0
x[960] 1
x[961] 0
x[962] 0
x[963] 0
x[964] 1
x[965] 0
x[966] 0
x[967] 1
x[968] 1
x[969] 1
x[970] 1
x[971] 1
x[972] 0
x[973] 1
x[974] 1
x[975] 1
x[976] 1
x[977] 0
x[978] 0
x[979] 0
x[980] 0
x[981] 0
x[982] 1
x[983] 0
x[984] 0
x[985] 0
x[986] 1
x[987] 0
x[988] 0
x[989] 1
x[990] 1
x[991] 0
x[992] 1
x[993] 1
x[994] 1
x[995] 0
x[996] 1
x[997] 0
x[998] 1
x[999] 1
